p cnf 20 1036
1 2 3 0
-1 -2 -3 0
1 2 -3 0
-1 -2 3 0
2 3 4 0
-2 -3 -4 0
3 4 5 0
-3 -4 -5 0
4 5 6 0
-4 -5 -6 0
4 5 -6 0
-4 -5 6 0
5 6 7 0
-5 -6 -7 0
4 7 -2 0
-4 -7 2 0
6 7 8 0
-6 -7 -8 0
7 8 9 0
-7 -8 -9 0
8 3 -9 0
-8 -3 9 0
8 9 10 0
-8 -9 -10 0
1 10 -4 0
-1 -10 4 0
2 9 -8 0
-2 -9 8 0
9 10 11 0
-9 -10 -11 0
10 11 12 0
-10 -11 -12 0
11 12 -9 0
-11 -12 9 0
11 12 13 0
-11 -12 -13 0
1 5 -13 0
-1 -5 13 0
8 3 -6 0
-8 -3 6 0
12 13 14 0
-12 -13 -14 0
7 14 -8 0
-7 -14 8 0
13 14 15 0
-13 -14 -15 0
14 15 16 0
-14 -15 -16 0
15 16 -4 0
-15 -16 4 0
15 16 17 0
-15 -16 -17 0
7 3 -17 0
-7 -3 17 0
3 13 -2 0
-3 -13 2 0
7 16 -17 0
-7 -16 17 0
3 14 -16 0
-3 -14 16 0
1 6 -9 0
-1 -6 9 0
17 3 -8 0
-17 -3 8 0
16 17 18 0
-16 -17 -18 0
18 16 -7 0
-18 -16 7 0
11 10 -5 0
-11 -10 5 0
18 10 -7 0
-18 -10 7 0
12 2 -15 0
-12 -2 15 0
7 6 -1 0
-7 -6 1 0
17 13 -10 0
-17 -13 10 0
17 18 19 0
-17 -18 -19 0
19 15 -6 0
-19 -15 6 0
15 18 -2 0
-15 -18 2 0
15 9 -8 0
-15 -9 8 0
19 9 -7 0
-19 -9 7 0
19 2 -11 0
-19 -2 11 0
18 19 20 0
-18 -19 -20 0
3 13 -20 0
-3 -13 20 0
19 9 -20 0
-19 -9 20 0
12 13 -15 0
-12 -13 15 0
4 20 -17 0
-4 -20 17 0
20 9 -1 0
-20 -9 1 0
3 14 -5 0
-3 -14 5 0
15 12 -8 0
-15 -12 8 0
11 9 -13 0
-11 -9 13 0
4 5 -3 0
-4 -5 3 0
20 5 -8 0
-20 -5 8 0
4 20 -16 0
-4 -20 16 0
16 13 -7 0
-16 -13 7 0
19 15 -2 0
-19 -15 2 0
3 6 -15 0
-3 -6 15 0
9 10 -7 0
-9 -10 7 0
20 17 -6 0
-20 -17 6 0
7 11 -9 0
-7 -11 9 0
17 5 -19 0
-17 -5 19 0
20 11 -6 0
-20 -11 6 0
1 16 -6 0
-1 -16 6 0
8 20 -6 0
-8 -20 6 0
15 14 -1 0
-15 -14 1 0
3 10 -17 0
-3 -10 17 0
20 2 -13 0
-20 -2 13 0
1 16 -14 0
-1 -16 14 0
7 18 -13 0
-7 -18 13 0
11 18 -4 0
-11 -18 4 0
16 6 -4 0
-16 -6 4 0
12 10 -1 0
-12 -10 1 0
15 18 -17 0
-15 -18 17 0
7 12 -9 0
-7 -12 9 0
16 3 -10 0
-16 -3 10 0
12 9 -5 0
-12 -9 5 0
19 6 -5 0
-19 -6 5 0
5 18 -12 0
-5 -18 12 0
19 3 -10 0
-19 -3 10 0
1 11 -18 0
-1 -11 18 0
15 2 -1 0
-15 -2 1 0
3 14 -9 0
-3 -14 9 0
14 13 -16 0
-14 -13 16 0
17 5 -10 0
-17 -5 10 0
16 3 -8 0
-16 -3 8 0
7 2 -20 0
-7 -2 20 0
4 18 -9 0
-4 -18 9 0
1 2 -6 0
-1 -2 6 0
4 9 -13 0
-4 -9 13 0
5 19 -2 0
-5 -19 2 0
20 19 -16 0
-20 -19 16 0
11 19 -10 0
-11 -19 10 0
2 3 -7 0
-2 -3 7 0
8 12 -2 0
-8 -12 2 0
11 18 -14 0
-11 -18 14 0
1 9 -4 0
-1 -9 4 0
4 7 -3 0
-4 -7 3 0
18 12 -4 0
-18 -12 4 0
15 16 -3 0
-15 -16 3 0
4 19 -12 0
-4 -19 12 0
15 16 -17 0
-15 -16 17 0
5 12 -9 0
-5 -12 9 0
15 13 -10 0
-15 -13 10 0
6 10 -20 0
-6 -10 20 0
2 9 -7 0
-2 -9 7 0
20 15 -6 0
-20 -15 6 0
19 15 -20 0
-19 -15 20 0
16 6 -19 0
-16 -6 19 0
16 10 -8 0
-16 -10 8 0
1 20 -18 0
-1 -20 18 0
3 9 -18 0
-3 -9 18 0
20 7 -10 0
-20 -7 10 0
12 13 -4 0
-12 -13 4 0
11 15 -20 0
-11 -15 20 0
16 13 -20 0
-16 -13 20 0
8 1 -19 0
-8 -1 19 0
8 7 -18 0
-8 -7 18 0
3 14 -18 0
-3 -14 18 0
12 6 -19 0
-12 -6 19 0
5 15 -8 0
-5 -15 8 0
2 3 -20 0
-2 -3 20 0
11 16 -5 0
-11 -16 5 0
8 6 -10 0
-8 -6 10 0
18 14 -19 0
-18 -14 19 0
7 15 -20 0
-7 -15 20 0
4 15 -6 0
-4 -15 6 0
8 9 -13 0
-8 -9 13 0
19 18 -6 0
-19 -18 6 0
6 10 -16 0
-6 -10 16 0
17 11 -13 0
-17 -11 13 0
19 15 -17 0
-19 -15 17 0
7 18 -20 0
-7 -18 20 0
8 20 -5 0
-8 -20 5 0
19 18 -14 0
-19 -18 14 0
18 10 -20 0
-18 -10 20 0
20 18 -3 0
-20 -18 3 0
6 14 -12 0
-6 -14 12 0
19 3 -20 0
-19 -3 20 0
4 20 -13 0
-4 -20 13 0
12 6 -1 0
-12 -6 1 0
14 13 -6 0
-14 -13 6 0
8 19 -12 0
-8 -19 12 0
5 18 -13 0
-5 -18 13 0
12 2 -17 0
-12 -2 17 0
11 3 -1 0
-11 -3 1 0
1 17 -7 0
-1 -17 7 0
17 12 -16 0
-17 -12 16 0
7 2 -9 0
-7 -2 9 0
19 9 -10 0
-19 -9 10 0
12 14 -7 0
-12 -14 7 0
3 10 -19 0
-3 -10 19 0
12 16 -2 0
-12 -16 2 0
3 9 -19 0
-3 -9 19 0
7 5 -2 0
-7 -5 2 0
6 13 -15 0
-6 -13 15 0
18 2 -19 0
-18 -2 19 0
15 16 -14 0
-15 -16 14 0
1 5 -6 0
-1 -5 6 0
4 20 -7 0
-4 -20 7 0
15 13 -1 0
-15 -13 1 0
18 6 -14 0
-18 -6 14 0
11 12 -13 0
-11 -12 13 0
17 19 -16 0
-17 -19 16 0
20 17 -18 0
-20 -17 18 0
17 18 -8 0
-17 -18 8 0
5 15 -6 0
-5 -15 6 0
8 17 -7 0
-8 -17 7 0
8 6 -4 0
-8 -6 4 0
18 14 -17 0
-18 -14 17 0
7 16 -9 0
-7 -16 9 0
14 13 -11 0
-14 -13 11 0
4 17 -7 0
-4 -17 7 0
20 13 -10 0
-20 -13 10 0
7 3 -8 0
-7 -3 8 0
20 11 -3 0
-20 -11 3 0
15 6 -13 0
-15 -6 13 0
2 3 -8 0
-2 -3 8 0
15 3 -9 0
-15 -3 9 0
1 9 -8 0
-1 -9 8 0
2 6 -7 0
-2 -6 7 0
18 2 -9 0
-18 -2 9 0
3 13 -17 0
-3 -13 17 0
15 12 -3 0
-15 -12 3 0
7 16 -20 0
-7 -16 20 0
4 8 -16 0
-4 -8 16 0
8 2 -14 0
-8 -2 14 0
15 2 -7 0
-15 -2 7 0
12 3 -6 0
-12 -3 6 0
16 6 -10 0
-16 -6 10 0
7 2 -1 0
-7 -2 1 0
2 14 -12 0
-2 -14 12 0
18 13 -7 0
-18 -13 7 0
15 10 -17 0
-15 -10 17 0
4 17 -13 0
-4 -17 13 0
4 15 -13 0
-4 -15 13 0
3 9 -16 0
-3 -9 16 0
20 5 -19 0
-20 -5 19 0
16 14 -12 0
-16 -14 12 0
17 2 -14 0
-17 -2 14 0
12 2 -19 0
-12 -2 19 0
4 1 -7 0
-4 -1 7 0
12 14 -8 0
-12 -14 8 0
8 19 -9 0
-8 -19 9 0
19 18 -7 0
-19 -18 7 0
8 16 -13 0
-8 -16 13 0
16 13 -15 0
-16 -13 15 0
2 14 -5 0
-2 -14 5 0
2 10 -15 0
-2 -10 15 0
5 18 -1 0
-5 -18 1 0
4 5 -18 0
-4 -5 18 0
3 14 -12 0
-3 -14 12 0
2 9 -12 0
-2 -9 12 0
9 13 -12 0
-9 -13 12 0
5 19 -20 0
-5 -19 20 0
15 10 -4 0
-15 -10 4 0
18 16 -15 0
-18 -16 15 0
17 6 -14 0
-17 -6 14 0
6 14 -18 0
-6 -14 18 0
20 6 -9 0
-20 -6 9 0
1 20 -9 0
-1 -20 9 0
7 6 -14 0
-7 -6 14 0
20 12 -14 0
-20 -12 14 0
5 15 -4 0
-5 -15 4 0
15 12 -2 0
-15 -12 2 0
14 13 -12 0
-14 -13 12 0
15 2 -13 0
-15 -2 13 0
11 12 -1 0
-11 -12 1 0
18 13 -17 0
-18 -13 17 0
19 18 -12 0
-19 -18 12 0
2 6 -13 0
-2 -6 13 0
11 19 -20 0
-11 -19 20 0
19 2 -20 0
-19 -2 20 0
16 3 -18 0
-16 -3 18 0
2 14 -19 0
-2 -14 19 0
11 14 -7 0
-11 -14 7 0
18 2 -20 0
-18 -2 20 0
14 10 -19 0
-14 -10 19 0
1 5 -16 0
-1 -5 16 0
12 13 -7 0
-12 -13 7 0
19 2 -8 0
-19 -2 8 0
5 14 -10 0
-5 -14 10 0
17 12 -9 0
-17 -12 9 0
8 13 -4 0
-8 -13 4 0
15 16 -2 0
-15 -16 2 0
8 18 -12 0
-8 -18 12 0
8 14 -4 0
-8 -14 4 0
4 7 -13 0
-4 -7 13 0
1 7 -14 0
-1 -7 14 0
5 12 -13 0
-5 -12 13 0
20 9 -13 0
-20 -9 13 0
15 2 -10 0
-15 -2 10 0
20 19 -1 0
-20 -19 1 0
2 6 -12 0
-2 -6 12 0
9 10 -12 0
-9 -10 12 0
4 12 -16 0
-4 -12 16 0
4 5 -12 0
-4 -5 12 0
8 17 -5 0
-8 -17 5 0
5 18 -10 0
-5 -18 10 0
20 17 -9 0
-20 -17 9 0
1 7 -8 0
-1 -7 8 0
16 3 -7 0
-16 -3 7 0
11 15 -14 0
-11 -15 14 0
1 3 -6 0
-1 -3 6 0
20 9 -10 0
-20 -9 10 0
4 19 -10 0
-4 -19 10 0
19 15 -9 0
-19 -15 9 0
2 9 -19 0
-2 -9 19 0
7 11 -1 0
-7 -11 1 0
20 15 -18 0
-20 -15 18 0
1 11 -19 0
-1 -11 19 0
17 7 -1 0
-17 -7 1 0
19 6 -10 0
-19 -6 10 0
19 13 -5 0
-19 -13 5 0
8 7 -14 0
-8 -7 14 0
8 17 -11 0
-8 -17 11 0
14 9 -5 0
-14 -9 5 0
19 14 -7 0
-19 -14 7 0
19 15 -13 0
-19 -15 13 0
15 6 -9 0
-15 -6 9 0
4 5 -14 0
-4 -5 14 0
12 6 -9 0
-12 -6 9 0
4 8 -13 0
-4 -8 13 0
5 18 -9 0
-5 -18 9 0
15 10 -8 0
-15 -10 8 0
1 19 -16 0
-1 -19 16 0
5 11 -12 0
-5 -11 12 0
8 20 -10 0
-8 -20 10 0
7 19 -15 0
-7 -19 15 0
3 9 -8 0
-3 -9 8 0
8 7 -2 0
-8 -7 2 0
5 19 -3 0
-5 -19 3 0
3 14 -19 0
-3 -14 19 0
8 5 -10 0
-8 -5 10 0
11 19 -18 0
-11 -19 18 0
20 5 -6 0
-20 -5 6 0
6 10 -11 0
-6 -10 11 0
5 3 -20 0
-5 -3 20 0
14 9 -11 0
-14 -9 11 0
4 8 -6 0
-4 -8 6 0
17 12 -10 0
-17 -12 10 0
1 9 -13 0
-1 -9 13 0
7 2 -3 0
-7 -2 3 0
7 15 -2 0
-7 -15 2 0
7 14 -20 0
-7 -14 20 0
14 10 -15 0
-14 -10 15 0
7 14 -17 0
-7 -14 17 0
12 10 -4 0
-12 -10 4 0
8 7 -11 0
-8 -7 11 0
18 2 -5 0
-18 -2 5 0
8 18 -3 0
-8 -18 3 0
18 16 -9 0
-18 -16 9 0
8 19 -2 0
-8 -19 2 0
19 16 -8 0
-19 -16 8 0
11 18 -2 0
-11 -18 2 0
11 16 -7 0
-11 -16 7 0
9 13 -19 0
-9 -13 19 0
14 10 -4 0
-14 -10 4 0
11 2 -8 0
-11 -2 8 0
1 7 -6 0
-1 -7 6 0
2 10 -16 0
-2 -10 16 0
3 9 -12 0
-3 -9 12 0
1 19 -15 0
-1 -19 15 0
12 9 -10 0
-12 -9 10 0
8 19 -4 0
-8 -19 4 0
11 19 -4 0
-11 -19 4 0
15 13 -8 0
-15 -13 8 0
12 10 -8 0
-12 -10 8 0
17 7 -4 0
-17 -7 4 0
12 6 -14 0
-12 -6 14 0
4 15 -16 0
-4 -15 16 0
7 10 -20 0
-7 -10 20 0
19 14 -10 0
-19 -14 10 0
8 1 -9 0
-8 -1 9 0
8 20 -11 0
-8 -20 11 0
2 3 -11 0
-2 -3 11 0
11 12 -10 0
-11 -12 10 0
3 14 -8 0
-3 -14 8 0
20 5 -18 0
-20 -5 18 0
11 10 -1 0
-11 -10 1 0
11 15 -5 0
-11 -15 5 0
18 2 -15 0
-18 -2 15 0
18 3 -17 0
-18 -3 17 0
2 10 -18 0
-2 -10 18 0
3 6 -4 0
-3 -6 4 0
6 13 -20 0
-6 -13 20 0
12 2 -5 0
-12 -2 5 0
18 3 -20 0
-18 -3 20 0
20 17 -8 0
-20 -17 8 0
11 13 -4 0
-11 -13 4 0
7 6 -20 0
-7 -6 20 0
9 10 -17 0
-9 -10 17 0
14 10 -3 0
-14 -10 3 0
20 14 -13 0
-20 -14 13 0
13 10 -16 0
-13 -10 16 0
8 19 -13 0
-8 -19 13 0
14 10 -7 0
-14 -10 7 0
7 15 -14 0
-7 -15 14 0
15 6 -8 0
-15 -6 8 0
7 5 -12 0
-7 -5 12 0
2 9 -15 0
-2 -9 15 0
19 14 -11 0
-19 -14 11 0
8 12 -16 0
-8 -12 16 0
17 11 -16 0
-17 -11 16 0
4 1 -15 0
-4 -1 15 0
12 2 -4 0
-12 -2 4 0
17 19 -6 0
-17 -19 6 0
12 10 -17 0
-12 -10 17 0
4 20 -10 0
-4 -20 10 0
19 15 -8 0
-19 -15 8 0
1 16 -10 0
-1 -16 10 0
1 12 -13 0
-1 -12 13 0
15 10 -11 0
-15 -10 11 0
7 3 -10 0
-7 -3 10 0
1 6 -10 0
-1 -6 10 0
12 13 -19 0
-12 -13 19 0
7 11 -12 0
-7 -11 12 0
2 14 -7 0
-2 -14 7 0
19 12 -3 0
-19 -12 3 0
2 13 -7 0
-2 -13 7 0
5 15 -1 0
-5 -15 1 0
16 2 -3 0
-16 -2 3 0
20 6 -10 0
-20 -6 10 0
8 18 -14 0
-8 -18 14 0
7 5 -6 0
-7 -5 6 0
9 10 -16 0
-9 -10 16 0
11 10 -7 0
-11 -10 7 0
4 12 -2 0
-4 -12 2 0
4 15 -18 0
-4 -15 18 0
18 12 -19 0
-18 -12 19 0
4 1 -16 0
-4 -1 16 0
8 11 -18 0
-8 -11 18 0
4 15 -12 0
-4 -15 12 0
5 14 -4 0
-5 -14 4 0
13 10 -11 0
-13 -10 11 0
2 10 -19 0
-2 -10 19 0
12 2 -8 0
-12 -2 8 0
11 19 -12 0
-11 -19 12 0
7 12 -13 0
-7 -12 13 0
7 11 -2 0
-7 -11 2 0
19 3 -6 0
-19 -3 6 0
17 11 -14 0
-17 -11 14 0
6 10 -12 0
-6 -10 12 0
16 6 -14 0
-16 -6 14 0
1 17 -15 0
-1 -17 15 0
16 2 -5 0
-16 -2 5 0
12 10 -11 0
-12 -10 11 0
8 11 -3 0
-8 -11 3 0
5 6 -1 0
-5 -6 1 0
12 13 -5 0
-12 -13 5 0
17 19 -14 0
-17 -19 14 0
6 9 -19 0
-6 -9 19 0
12 9 -1 0
-12 -9 1 0
15 14 -19 0
-15 -14 19 0
12 13 -8 0
-12 -13 8 0
4 3 -13 0
-4 -3 13 0
8 3 -10 0
-8 -3 10 0
4 3 -13 0
-4 -3 13 0
15 16 -8 0
-15 -16 8 0
12 14 -9 0
-12 -14 9 0
11 18 -10 0
-11 -18 10 0
7 5 -19 0
-7 -5 19 0
3 10 -15 0
-3 -10 15 0
11 9 -1 0
-11 -9 1 0
3 14 -10 0
-3 -14 10 0
20 16 -3 0
-20 -16 3 0
17 16 -8 0
-17 -16 8 0
4 8 -1 0
-4 -8 1 0
8 5 -15 0
-8 -5 15 0
4 16 -14 0
-4 -16 14 0
16 14 -19 0
-16 -14 19 0
6 10 -19 0
-6 -10 19 0
15 18 -16 0
-15 -18 16 0
8 15 -16 0
-8 -15 16 0
12 14 -4 0
-12 -14 4 0
17 16 -3 0
-17 -16 3 0
11 3 -8 0
-11 -3 8 0
4 19 -6 0
-4 -19 6 0
11 2 -1 0
-11 -2 1 0
3 9 -11 0
-3 -9 11 0
16 9 -18 0
-16 -9 18 0
1 11 -13 0
-1 -11 13 0
6 9 -5 0
-6 -9 5 0
12 14 -18 0
-12 -14 18 0
19 3 -11 0
-19 -3 11 0
1 15 -6 0
-1 -15 6 0
19 16 -5 0
-19 -16 5 0
6 10 -5 0
-6 -10 5 0
19 16 -14 0
-19 -16 14 0
19 18 -8 0
-19 -18 8 0
7 3 -6 0
-7 -3 6 0
15 16 -11 0
-15 -16 11 0
19 12 -2 0
-19 -12 2 0
1 7 -11 0
-1 -7 11 0
18 2 -8 0
-18 -2 8 0
7 12 -14 0
-7 -12 14 0
15 13 -4 0
-15 -13 4 0
11 14 -5 0
-11 -14 5 0
6 14 -15 0
-6 -14 15 0
11 13 -17 0
-11 -13 17 0
4 11 -18 0
-4 -11 18 0
15 12 -17 0
-15 -12 17 0
11 16 -10 0
-11 -16 10 0
1 12 -3 0
-1 -12 3 0
15 14 -10 0
-15 -14 10 0
9 10 -6 0
-9 -10 6 0
7 15 -13 0
-7 -15 13 0
17 13 -4 0
-17 -13 4 0
11 15 -6 0
-11 -15 6 0
3 14 -15 0
-3 -14 15 0
16 2 -13 0
-16 -2 13 0
17 6 -1 0
-17 -6 1 0
8 2 -10 0
-8 -2 10 0
20 6 -13 0
-20 -6 13 0
11 14 -13 0
-11 -14 13 0
15 18 -9 0
-15 -18 9 0
8 20 -19 0
-8 -20 19 0
7 9 -8 0
-7 -9 8 0
16 10 -15 0
-16 -10 15 0
18 13 -10 0
-18 -13 10 0
12 9 -7 0
-12 -9 7 0
11 6 -1 0
-11 -6 1 0
18 14 -11 0
-18 -14 11 0
12 16 -5 0
-12 -16 5 0
15 18 -5 0
-15 -18 5 0
15 10 -19 0
-15 -10 19 0
20 2 -6 0
-20 -2 6 0
2 3 -18 0
-2 -3 18 0
3 13 -7 0
-3 -13 7 0
17 6 -9 0
-17 -6 9 0
4 13 -10 0
-4 -13 10 0
9 13 -7 0
-9 -13 7 0
7 6 -9 0
-7 -6 9 0
4 1 -11 0
-4 -1 11 0
20 13 -8 0
-20 -13 8 0
8 7 -3 0
-8 -7 3 0
18 2 -11 0
-18 -2 11 0
7 11 -13 0
-7 -11 13 0
11 14 -20 0
-11 -14 20 0
17 15 -12 0
-17 -15 12 0
8 10 -4 0
-8 -10 4 0
7 18 -6 0
-7 -18 6 0
11 14 -1 0
-11 -14 1 0
5 2 -10 0
-5 -2 10 0
1 17 -8 0
-1 -17 8 0
20 5 -12 0
-20 -5 12 0
8 7 -16 0
-8 -7 16 0
11 16 -13 0
-11 -16 13 0
7 5 -15 0
-7 -5 15 0
5 2 -8 0
-5 -2 8 0
18 10 -5 0
-18 -10 5 0
17 19 -13 0
-17 -19 13 0
2 6 -10 0
-2 -6 10 0
1 20 -5 0
-1 -20 5 0
4 7 -18 0
-4 -7 18 0
5 18 -17 0
-5 -18 17 0
